Route #1: 8 23 15 1 16 17 30 31 36 43 49 59 66 65 54 48 29 28 35 47 53 58 70 76 82 94 95 96 83 97 90 84 85 71 60 61 72 86 98 91 87 77 73 62 55 56 45 40 27 26 25 39 33 38 50 44 37 32 24 18 9 2 3 4 10 19 5 11 12 6 20 13 7 14 22 21 34 41 42 46 57 52 51 63 64 74 75 69 81 93 89 92 80 79 68 67 78 88 99 100
Cost 46061
